 N O Ag
   1.0
     9.8130133395493626    0.0000000000000000    0.0000000000000000
     0.0000000000000000   12.9607729652407464    0.0000000000000000
     0.0000000000000000    0.0000000000000000    9.9776294309342557
 N O Ag
  24  48  24
Direct
   0.0010190549685383  0.2500000000000000  0.1952475607335603
   0.3333333333333333  0.2500000000000000  0.1952475607335603
   0.6666666666666666  0.2500000000000000  0.1952475607335603
   0.0000000000000000  0.7500000000000000  0.1952475607335603
   0.3333333333333333  0.7500000000000000  0.1952475607335603
   0.6666666666666666  0.7500000000000000  0.1952475607335603
   0.0000000000000000  0.2500000000000000  0.6952475607335603
   0.3333333333333333  0.2500000000000000  0.6952475607335603
   0.6666666666666666  0.2500000000000000  0.6952475607335603
   0.0000000000000000  0.7500000000000000  0.6952475607335603
   0.3333333333333333  0.7500000000000000  0.6952475607335603
   0.6666666666666666  0.7500000000000000  0.6952475607335603
   0.1666666666666666  0.0000000000000000  0.4452475607335603
   0.5000000000000000  0.0000000000000000  0.4452475607335603
   0.8333333333333334  0.0000000000000000  0.4452475607335603
   0.1666666666666666  0.5000000000000000  0.4452475607335603
   0.5000000000000000  0.5000000000000000  0.4452475607335603
   0.8333333333333334  0.5000000000000000  0.4452475607335603
   0.1666666666666666  0.0000000000000000  0.9452475607335604
   0.5000000000000000  0.0000000000000000  0.9452475607335604
   0.8333333333333334  0.0000000000000000  0.9452475607335604
   0.1666666666666666  0.5000000000000000  0.9452475607335604
   0.5000000000000000  0.5000000000000000  0.9452475607335604
   0.8333333333333334  0.5000000000000000  0.9452475607335604
   0.0000000000000000  0.3318936741729317  0.2635067655175194
   0.3333333333333333  0.3318936741729317  0.2635067655175194
   0.6666666666666666  0.3318936741729317  0.2635067655175194
   0.0000000000000000  0.8318936741729317  0.2635067655175194
   0.3333333333333333  0.8318936741729317  0.2635067655175194
   0.6666666666666666  0.8318936741729317  0.2635067655175194
   0.0000000000000000  0.3318936741729317  0.7635067655175194
   0.3333333333333333  0.3318936741729317  0.7635067655175194
   0.6666666666666666  0.3318936741729317  0.7635067655175194
   0.0000000000000000  0.8318936741729317  0.7635067655175194
   0.3333333333333333  0.8318936741729317  0.7635067655175194
   0.6666666666666666  0.8318936741729317  0.7635067655175194
   0.0000000000000000  0.1681063258270684  0.2635067655175194
   0.3333333333333333  0.1681063258270684  0.2635067655175194
   0.6666666666666666  0.1681063258270684  0.2635067655175194
   0.0000000000000000  0.6681063258270684  0.2635067655175194
   0.3333333333333333  0.6681063258270684  0.2635067655175194
   0.6666666666666666  0.6681063258270684  0.2635067655175194
   0.0000000000000000  0.1681063258270684  0.7635067655175194
   0.3333333333333333  0.1681063258270684  0.7635067655175194
   0.6666666666666666  0.1681063258270684  0.7635067655175194
   0.0000000000000000  0.6681063258270684  0.7635067655175194
   0.3333333333333333  0.6681063258270684  0.7635067655175194
   0.6666666666666666  0.6681063258270684  0.7635067655175194
   0.1666666666666666  0.0818936741729317  0.0135067655175194
   0.5000000000000000  0.0818936741729317  0.0135067655175194
   0.8333333333333334  0.0818936741729317  0.0135067655175194
   0.1666666666666666  0.5818936741729317  0.0135067655175194
   0.5000000000000000  0.5818936741729317  0.0135067655175194
   0.8333333333333334  0.5818936741729317  0.0135067655175194
   0.1666666666666666  0.0818936741729317  0.5135067655175194
   0.5000000000000000  0.0818936741729317  0.5135067655175194
   0.8333333333333334  0.0818936741729317  0.5135067655175194
   0.1666666666666666  0.5818936741729317  0.5135067655175194
   0.5000000000000000  0.5818936741729317  0.5135067655175194
   0.8333333333333334  0.5818936741729317  0.5135067655175194
   0.1666666666666666  0.4181063258270684  0.0135067655175194
   0.5000000000000000  0.4181063258270684  0.0135067655175194
   0.8333333333333334  0.4181063258270684  0.0135067655175194
   0.1666666666666666  0.9181063258270684  0.0135067655175194
   0.5000000000000000  0.9181063258270684  0.0135067655175194
   0.8333333333333334  0.9181063258270684  0.0135067655175194
   0.1666666666666666  0.4181063258270684  0.5135067655175194
   0.5000000000000000  0.4181063258270684  0.5135067655175194
   0.8333333333333334  0.4181063258270684  0.5135067655175194
   0.1666666666666666  0.9181063258270684  0.5135067655175194
   0.5000000000000000  0.9181063258270684  0.5135067655175194
   0.8333333333333334  0.9181063258270684  0.5135067655175194
   0.0000000000000000  0.2500000000000000  0.4777389082314037
   0.3333333333333333  0.2500000000000000  0.4777389082314037
   0.6666666666666666  0.2500000000000000  0.4777389082314037
   0.0000000000000000  0.7500000000000000  0.4777389082314037
   0.3333333333333333  0.7500000000000000  0.4777389082314037
   0.6666666666666666  0.7500000000000000  0.4777389082314037
   0.0000000000000000  0.2500000000000000  0.9777389082314037
   0.3333333333333333  0.2500000000000000  0.9777389082314037
   0.6666666666666666  0.2500000000000000  0.9777389082314037
   0.0000000000000000  0.7500000000000000  0.9777389082314037
   0.3333333333333333  0.7500000000000000  0.9777389082314037
   0.6666666666666666  0.7500000000000000  0.9777389082314037
   0.1666666666666666  0.0000000000000000  0.2277389082314037
   0.5000000000000000  0.0000000000000000  0.2277389082314037
   0.8333333333333334  0.0000000000000000  0.2277389082314037
   0.1666666666666666  0.5000000000000000  0.2277389082314037
   0.5000000000000000  0.5000000000000000  0.2277389082314037
   0.8333333333333334  0.5000000000000000  0.2277389082314037
   0.1666666666666666  0.0000000000000000  0.7277389082314037
   0.5000000000000000  0.0000000000000000  0.7277389082314037
   0.8333333333333334  0.0000000000000000  0.7277389082314037
   0.1666666666666666  0.5000000000000000  0.7277389082314037
   0.5000000000000000  0.5000000000000000  0.7277389082314037
   0.8333333333333334  0.5000000000000000  0.7277389082314037
